46 57
36 43
9 10
43 20
51 88
95 90
23 71
93 77
15 96
90 39
43 72
95 52
84 15
96 83
60 33
2 42
96 80
54 36
65 97
73 21
92 49
20 43
11 40
28 56
32 17
19 25
86 52
97 61
43 1
28 82
68 87
24 11
98 22
41 92
21 35
87 1
82 22
71 65
97 25
66 58
46 49
14 51
41 77
2 15
15 41
58 64
34 61
5 87
72 28
26 52
76 48
29 73
78 58
7 99
46 27
82 65
39 10
86 99
9 45
91 68
2 31
25 87
44 36
43 87